c description: Random 2-CNF over 15 variables and 45 clauses
c generator: CNFgen (0.9.0)
c copyright: (C) 2012-2020 Massimo Lauria <massimo.lauria@uniroma1.it>
c url: https://massimolauria.net/cnfgen
c
p cnf 15 45
-4 -7 0
-1 -10 0
-5 13 0
-14 15 0
-5 6 0
-1 3 0
-11 13 0
-1 -12 0
-8 -9 0
-11 -15 0
-5 -6 0
2 9 0
4 13 0
12 -13 0
11 -15 0
1 14 0
-6 10 0
6 -14 0
2 3 0
2 -13 0
-3 -7 0
3 -7 0
4 6 0
5 14 0
-2 11 0
-1 15 0
3 -15 0
1 8 0
-1 -15 0
-6 11 0
-7 8 0
3 -10 0
4 -10 0
5 7 0
13 15 0
-3 12 0
-6 -11 0
-10 14 0
6 -13 0
8 13 0
-9 -14 0
-4 10 0
-4 -9 0
1 9 0
-12 13 0